0 21 25
1 25 27
2 21 26
3 20 26
4 24 25
5 26 26
6 26 27
7 26 27
8 21 25
9 25 27
10 10 24
11 17 23
12 14 19
13 6 19
14 15 17
15 10 13
16 10 12
17 11 12
18 6 10
19 7 8
20 4 11
21 5 8
22 5 5
23 4 4
24 3 4
25 3 3
26 1 2
27 1 1

